from = [
    0, 0, 0, 0, 0, 0, 0, 0,
    1, 1, 1, 1, 1, 1, 1,
    2, 2, 2, 2, 2, 2,
    3, 3, 3, 3, 3,
    4, 4, 4, 4,
    5, 5, 5,
    6, 6,
    7
];

to = [
    1, 2, 3, 4, 5, 6, 7, 8,  
    2, 3, 4, 5, 6, 7, 8,     
    3, 4, 5, 6, 7, 8,        
    4, 5, 6, 7, 8,           
    5, 6, 7, 8,              
    6, 7, 8,                 
    7, 8,                    
    8                        
];
r = 0;
n = 9;